<instance format="XCSP3" type="COP">
  <variables>
    <array id="x" note="x[i][j] is 1 if a coin is placed at row i and column j" size="[28][28]"> 0 1 </array>
  </variables>
  <constraints>
    <group>
      <sum>
        <list> %... </list>
        <condition> (eq,12) </condition>
      </sum>
      <args> x[0][] </args>
      <args> x[1][] </args>
      <args> x[2][] </args>
      <args> x[3][] </args>
      <args> x[4][] </args>
      <args> x[5][] </args>
      <args> x[6][] </args>
      <args> x[7][] </args>
      <args> x[8][] </args>
      <args> x[9][] </args>
      <args> x[10][] </args>
      <args> x[11][] </args>
      <args> x[12][] </args>
      <args> x[13][] </args>
      <args> x[14][] </args>
      <args> x[15][] </args>
      <args> x[16][] </args>
      <args> x[17][] </args>
      <args> x[18][] </args>
      <args> x[19][] </args>
      <args> x[20][] </args>
      <args> x[21][] </args>
      <args> x[22][] </args>
      <args> x[23][] </args>
      <args> x[24][] </args>
      <args> x[25][] </args>
      <args> x[26][] </args>
      <args> x[27][] </args>
    </group>
    <group>
      <sum>
        <list> %... </list>
        <condition> (eq,12) </condition>
      </sum>
      <args> x[][0] </args>
      <args> x[][1] </args>
      <args> x[][2] </args>
      <args> x[][3] </args>
      <args> x[][4] </args>
      <args> x[][5] </args>
      <args> x[][6] </args>
      <args> x[][7] </args>
      <args> x[][8] </args>
      <args> x[][9] </args>
      <args> x[][10] </args>
      <args> x[][11] </args>
      <args> x[][12] </args>
      <args> x[][13] </args>
      <args> x[][14] </args>
      <args> x[][15] </args>
      <args> x[][16] </args>
      <args> x[][17] </args>
      <args> x[][18] </args>
      <args> x[][19] </args>
      <args> x[][20] </args>
      <args> x[][21] </args>
      <args> x[][22] </args>
      <args> x[][23] </args>
      <args> x[][24] </args>
      <args> x[][25] </args>
      <args> x[][26] </args>
      <args> x[][27] </args>
    </group>
  </constraints>
  <objectives>
    <minimize type="sum">
      <list> x[][] </list>
      <coeffs> 0 1 4 9 16 25 36 49 64 81 100 121 144 169 196 225 256 289 324 361 400 441 484 529 576 625 676 729 1 0 1 4 9 16 25 36 49 64 81 100 121 144 169 196 225 256 289 324 361 400 441 484 529 576 625 676 4 1 0 1 4 9 16 25 36 49 64 81 100 121 144 169 196 225 256 289 324 361 400 441 484 529 576 625 9 4 1 0 1 4 9 16 25 36 49 64 81 100 121 144 169 196 225 256 289 324 361 400 441 484 529 576 16 9 4 1 0 1 4 9 16 25 36 49 64 81 100 121 144 169 196 225 256 289 324 361 400 441 484 529 25 16 9 4 1 0 1 4 9 16 25 36 49 64 81 100 121 144 169 196 225 256 289 324 361 400 441 484 36 25 16 9 4 1 0 1 4 9 16 25 36 49 64 81 100 121 144 169 196 225 256 289 324 361 400 441 49 36 25 16 9 4 1 0 1 4 9 16 25 36 49 64 81 100 121 144 169 196 225 256 289 324 361 400 64 49 36 25 16 9 4 1 0 1 4 9 16 25 36 49 64 81 100 121 144 169 196 225 256 289 324 361 81 64 49 36 25 16 9 4 1 0 1 4 9 16 25 36 49 64 81 100 121 144 169 196 225 256 289 324 100 81 64 49 36 25 16 9 4 1 0 1 4 9 16 25 36 49 64 81 100 121 144 169 196 225 256 289 121 100 81 64 49 36 25 16 9 4 1 0 1 4 9 16 25 36 49 64 81 100 121 144 169 196 225 256 144 121 100 81 64 49 36 25 16 9 4 1 0 1 4 9 16 25 36 49 64 81 100 121 144 169 196 225 169 144 121 100 81 64 49 36 25 16 9 4 1 0 1 4 9 16 25 36 49 64 81 100 121 144 169 196 196 169 144 121 100 81 64 49 36 25 16 9 4 1 0 1 4 9 16 25 36 49 64 81 100 121 144 169 225 196 169 144 121 100 81 64 49 36 25 16 9 4 1 0 1 4 9 16 25 36 49 64 81 100 121 144 256 225 196 169 144 121 100 81 64 49 36 25 16 9 4 1 0 1 4 9 16 25 36 49 64 81 100 121 289 256 225 196 169 144 121 100 81 64 49 36 25 16 9 4 1 0 1 4 9 16 25 36 49 64 81 100 324 289 256 225 196 169 144 121 100 81 64 49 36 25 16 9 4 1 0 1 4 9 16 25 36 49 64 81 361 324 289 256 225 196 169 144 121 100 81 64 49 36 25 16 9 4 1 0 1 4 9 16 25 36 49 64 400 361 324 289 256 225 196 169 144 121 100 81 64 49 36 25 16 9 4 1 0 1 4 9 16 25 36 49 441 400 361 324 289 256 225 196 169 144 121 100 81 64 49 36 25 16 9 4 1 0 1 4 9 16 25 36 484 441 400 361 324 289 256 225 196 169 144 121 100 81 64 49 36 25 16 9 4 1 0 1 4 9 16 25 529 484 441 400 361 324 289 256 225 196 169 144 121 100 81 64 49 36 25 16 9 4 1 0 1 4 9 16 576 529 484 441 400 361 324 289 256 225 196 169 144 121 100 81 64 49 36 25 16 9 4 1 0 1 4 9 625 576 529 484 441 400 361 324 289 256 225 196 169 144 121 100 81 64 49 36 25 16 9 4 1 0 1 4 676 625 576 529 484 441 400 361 324 289 256 225 196 169 144 121 100 81 64 49 36 25 16 9 4 1 0 1 729 676 625 576 529 484 441 400 361 324 289 256 225 196 169 144 121 100 81 64 49 36 25 16 9 4 1 0 </coeffs>
    </minimize>
  </objectives>
</instance>
